(set-info :Origin "This instance was generated by: BanditFuzz-- an RL fuzzer for SMT solvers" )
(set-info :Author "Joe Scott, Fed Mora, Vijay Ganesh" )
(set-info :Contact "Joe Scott, joseph.scott@uwaterloo.ca")
; solvers/z3.sh
; 	time => 0.18595480918884277
; 	answer => err
; solvers/bitwuzla.sh
; 	time => 0.16536164283752441
; 	answer => err
; solvers/cvc4.sh
; 	time => 0.21010208129882812
; 	answer => err
(set-logic QF_BV)
(declare-const bool_0 Bool)
(declare-const bool_1 Bool)
(declare-const bool_2 Bool)
(declare-const bool_3 Bool)
(declare-const bool_4 Bool)
(declare-const bv_0 (_ BitVec 8))
(declare-const bv_1 (_ BitVec 8))
(declare-const bv_2 (_ BitVec 8))
(declare-const bv_3 (_ BitVec 8))
(declare-const bv_4 (_ BitVec 8))
(assert (not (bvsle (bvsub bv_4 bv_4) (bvsrem bv_2 bv_4))))
(assert (bvuge (bvurem (bvshl #x0000006e  #x0000004e ) (bvurem bv_1 bv_4)) (bvnor (bvxnor #x0000003b  bv_2) (bvnor bv_0 #x0000007d ))))
(assert (bvugt (bvor (bvadd #x0000003d  #x0000008a ) (bvadd #x0000008d  #x00000051 )) (bvurem (bvadd #x000000e9  bv_2) (bvor bv_3 bv_2))))
(assert (bvsle (bvor (bvnand #x000000e0  bv_4) (bvshl #x000000bb  #x00000067 )) (bvsrem (bvor #x000000da  bv_0) (bvlshr bv_4 #x000000da ))))
(assert (bvule (bvmul (bvxor bv_2 bv_4) (bvshl #x00000019  bv_4)) (bvurem (bvmul bv_1 #x00000081 ) (bvudiv #x0000006f  #x00000070 ))))
(check-sat)
(exit)
